c turning on binary mode checking
c parsing input formula with 259840 variables and 1039934 clauses
c finished parsing, read 3360553 bytes from proof file
c detected empty clause; start verification via backward checking
c 2189 of 1039934 clauses in core                            
c 572 of 138492 lemmas in core using 10397 resolution steps
c 0 RAT lemmas in core; 33 redundant literals in core lemmas
s VERIFIED
c verification time: 1.202 seconds
